<number of tasks>
50

<cycle time>
1000

<order strength>
0.205


<task times>
1 550
2 292
3 626
4 372
5 568
6 432
7 450
8 248
9 431
10 269
11 494
12 479
13 344
14 493
15 315
16 353
17 520
18 362
19 219
20 325
21 641
22 413
23 483
24 485
25 447
26 568
27 586
28 515
29 419
30 443
31 610
32 608
33 505
34 371
35 506
36 498
37 305
38 386
39 578
40 429
41 736
42 612
43 476
44 525
45 494
46 588
47 691
48 551
49 525
50 507

<precedence relations>
1,31
2,20
3,7
5,9
5,10
6,8
7,11
7,12
9,13
9,15
10,14
11,16
12,17
13,19
14,18
14,19
14,20
15,21
16,27
17,29
18,26
18,35
19,28
19,30
21,22
21,23
21,24
21,25
22,31
23,31
24,31
25,31
26,32
27,35
28,33
29,34
30,36
30,37
31,38
31,39
31,40
31,41
31,42
32,44
33,45
34,43
35,46
39,47
41,49
41,50
43,47
44,48

<end>
